10J3M/DAT/10J3MULX-7.dat
10 3
23.3232 4.8294
40.211 6.3412
33.5223 5.7898
29.9043 5.4685
24.3461 4.9342
12.6064 3.5505
17.3368 4.1637
33.4075 5.7799
38.0437 6.168
15.8355 3.9794
17.0015