10J3M/SOL/10J3MULX-7.sol
solution status: optimal solution found
objective value:                     89.5121483133831
x#1#2                                               1 	(obj:0)
x#2#3                                               1 	(obj:0)
x#3#2                                               1 	(obj:0)
x#4#1                                               1 	(obj:0)
x#5#1                                               1 	(obj:0)
x#6#2                               0.127668121281768 	(obj:0)
x#6#3                               0.872303713671054 	(obj:0)
x#7#3                                               1 	(obj:0)
x#8#1                                0.86504881562539 	(obj:0)
x#8#2                                0.13495118437461 	(obj:0)
x#9#2                               0.448851221690837 	(obj:0)
x#9#3                               0.551148778309163 	(obj:0)
x#10#1                              0.401795333609792 	(obj:0)
x#10#2                              0.598204666390208 	(obj:0)
z                                    89.5121483133831 	(obj:1)
